(set-logic BV)

(synth-fun deobfucated ( (b (BitVec 64))  ) (BitVec 64)
	(
		(Start (BitVec 64)
			(
				(bvnot Start)
				(bvxor Start Start)
				(bvand Start Start)
				(bvor Start Start)
				(bvneg Start)
				(bvadd Start Start)
				(bvmul Start Start)
				(bvsub Start Start)
				b
			)
		)
	)
)

(constraint (= (deobfucated #x000000000f2b9ee8) #xfffffffffed77dd8))
(constraint (= (deobfucated #x000000000ba0c964) #xfffffffff75fb6dc))
(constraint (= (deobfucated #x0000000032a971e4) #xffffffffed56efdc))
(constraint (= (deobfucated #x0000000006c93a96) #xfffffffffdb6f56e))
(constraint (= (deobfucated #x00000000242a6f43) #xffffffffdbd5debf))
(constraint (= (deobfucated #x00000000352513fe) #xffffffffeadaeffe))
(constraint (= (deobfucated #x0000000004a3f8f9) #xfffffffffb5ff7f7))
(constraint (= (deobfucated #x000000002fcb9252) #xffffffffdfb76dae))
(constraint (= (deobfucated #x000000002d716546) #xffffffffdaeedabe))
(constraint (= (deobfucated #x000000002b09ffcb) #xffffffffd6f7ffb7))
(constraint (= (deobfucated #x000000001bc268c2) #xfffffffff7bdd7be))
(constraint (= (deobfucated #x000000001c6006e2) #xfffffffffbdffdde))
(constraint (= (deobfucated #x000000002d1eca65) #xffffffffdafdb5db))
(constraint (= (deobfucated #x000000002e65787d) #xffffffffdddaf7fb))
(constraint (= (deobfucated #x00000000235699af) #xffffffffdead775f))
(constraint (= (deobfucated #x0000000022165927) #xffffffffddedb6df))
(constraint (= (deobfucated #x0000000021530f4e) #xffffffffdeaefebe))
(constraint (= (deobfucated #x0000000017ef34fd) #xffffffffefdeebfb))
(constraint (= (deobfucated #x000000001dbc4e0d) #xfffffffffb7bbdfb))
(constraint (= (deobfucated #x000000002dee878b) #xffffffffdbdd7f77))
(check-synth)